unsat
(:max-memory         18.43
 :memory             18.33
 :nlsat-arith-var    4
 :nlsat-atoms        17
 :nlsat-bool-var     1
 :nlsat-clauses      11
 :nlsat-conflicts    6
 :nlsat-decisions    1
 :nlsat-propagations 28
 :nlsat-stages       7
 :num-allocs         50707
 :rlimit-count       2336
 :time               0.00
 :total-time         0.02)
